17	4
22	26	23	30	
0	0	0	0	0	3	2	3	4	
7	6	3	5	0	2	15	16	
9	2	7	7	0	3	5	13	17	
7	3	0	8	6	3	6	7	10	
1	3	5	6	9	2	8	17	
25	2	1	4	6	1	16	
125	7	5	0	7	3	9	15	17	
250	0	5	8	0	3	12	14	17	
75	10	5	7	9	3	13	17	17	
250	1	5	5	4	3	11	17	17	
25	10	5	0	1	3	17	17	17	
100	7	1	0	0	1	17	
5	0	8	5	1	3	14	17	17	
7	6	5	8	10	1	17	
6	2	9	2	6	2	17	17	
6	6	9	4	0	2	17	17	
0	0	0	0	0	0	
